BAYES
10
2 2 2 2 2 2 2 2 2 2
10
1 0
1 1
1 2
2 0 3
3 0 1 4
3 0 1 5
3 1 2 6
2 4 7
2 5 8
2 6 9

2
 0.5 0.5

2
 0.5 0.5

2
 0.5 0.5

4
 0.0 1.0
 0.0 1.0

8
 1.0 0.0
 0.0 1.0
 0.0 1.0
 0.0 1.0

8
 0.0 1.0
 0.0 1.0
 0.0 1.0
 0.0 1.0

8
 0.0 1.0
 0.0 1.0
 1.0 0.0
 0.0 1.0

4
 0.8998 0.1002
 0.0 1.0

4
 0.66713 0.33287
 0.0 1.0

4
 0.77687 0.22313
 0.0 1.0

